* #variable= 476 #constraint= 1179 
-1 x29 +1 x1 >= 0 ;
-1 x29 +1 x15 >= 0 ;
+1 x29 -1 x1 -1 x15 >= -1 ;
+1 x29 +2 x43 +4 x57 +8 x71 +16 x85 +32 x99 +64 x113 +128 x127 +256 x141 +512 x155 +1024 x169 +2048 x183 +4096 x197 +8192 x211 +2 x30 +4 x44 +8 x58 +16 x72 +32 x86 +64 x100 +128 x114 +256 x128 +512 x142 +1024 x156 +2048 x170 +4096 x184 +8192 x198 +16384 x212 +4 x31 +8 x45 +16 x59 +32 x73 +64 x87 +128 x101 +256 x115 +512 x129 +1024 x143 +2048 x157 +4096 x171 +8192 x185 +16384 x199 +32768 x213 +8 x32 +16 x46 +32 x60 +64 x74 +128 x88 +256 x102 +512 x116 +1024 x130 +2048 x144 +4096 x158 +8192 x172 +16384 x186 +32768 x200 +65536 x214 +16 x33 +32 x47 +64 x61 +128 x75 +256 x89 +512 x103 +1024 x117 +2048 x131 +4096 x145 +8192 x159 +16384 x173 +32768 x187 +65536 x201 +131072 x215 +32 x34 +64 x48 +128 x62 +256 x76 +512 x90 +1024 x104 +2048 x118 +4096 x132 +8192 x146 +16384 x160 +32768 x174 +65536 x188 +131072 x202 +262144 x216 +64 x35 +128 x49 +256 x63 +512 x77 +1024 x91 +2048 x105 +4096 x119 +8192 x133 +16384 x147 +32768 x161 +65536 x175 +131072 x189 +262144 x203 +524288 x217 +128 x36 +256 x50 +512 x64 +1024 x78 +2048 x92 +4096 x106 +8192 x120 +16384 x134 +32768 x148 +65536 x162 +131072 x176 +262144 x190 +524288 x204 +1048576 x218 +256 x37 +512 x51 +1024 x65 +2048 x79 +4096 x93 +8192 x107 +16384 x121 +32768 x135 +65536 x149 +131072 x163 +262144 x177 +524288 x191 +1048576 x205 +2097152 x219 +512 x38 +1024 x52 +2048 x66 +4096 x80 +8192 x94 +16384 x108 +32768 x122 +65536 x136 +131072 x150 +262144 x164 +524288 x178 +1048576 x192 +2097152 x206 +4194304 x220 +1024 x39 +2048 x53 +4096 x67 +8192 x81 +16384 x95 +32768 x109 +65536 x123 +131072 x137 +262144 x151 +524288 x165 +1048576 x179 +2097152 x193 +4194304 x207 +8388608 x221 +2048 x40 +4096 x54 +8192 x68 +16384 x82 +32768 x96 +65536 x110 +131072 x124 +262144 x138 +524288 x152 +1048576 x166 +2097152 x180 +4194304 x194 +8388608 x208 +16777216 x222 +4096 x41 +8192 x55 +16384 x69 +32768 x83 +65536 x97 +131072 x111 +262144 x125 +524288 x139 +1048576 x153 +2097152 x167 +4194304 x181 +8388608 x195 +16777216 x209 +33554432 x223 +8192 x42 +16384 x56 +32768 x70 +65536 x84 +131072 x98 +262144 x112 +524288 x126 +1048576 x140 +2097152 x154 +4194304 x168 +8388608 x182 +16777216 x196 +33554432 x210 +67108864 x224 -1 x449 -2 x450 -4 x451 -8 x452 -16 x453 -32 x454 -64 x455 -128 x456 -256 x457 -512 x458 -1024 x459 -2048 x460 -4096 x461 -8192 x462 -16384 x463 -32768 x464 -65536 x465 -131072 x466 -262144 x467 -524288 x468 -1048576 x469 -2097152 x470 -4194304 x471 -8388608 x472 -16777216 x473 -33554432 x474 -67108864 x475 -134217728 x476 = 0; 
-1 x225 +1 x15 >= 0 ;
-1 x225 +1 x1 >= 0 ;
+1 x225 -1 x15 -1 x1 >= -1 ;
+1 x225 +2 x239 +4 x253 +8 x267 +16 x281 +32 x295 +64 x309 +128 x323 +256 x337 +512 x351 +1024 x365 +2048 x379 +4096 x393 +8192 x407 +2 x226 +4 x240 +8 x254 +16 x268 +32 x282 +64 x296 +128 x310 +256 x324 +512 x338 +1024 x352 +2048 x366 +4096 x380 +8192 x394 +16384 x408 +4 x227 +8 x241 +16 x255 +32 x269 +64 x283 +128 x297 +256 x311 +512 x325 +1024 x339 +2048 x353 +4096 x367 +8192 x381 +16384 x395 +32768 x409 +8 x228 +16 x242 +32 x256 +64 x270 +128 x284 +256 x298 +512 x312 +1024 x326 +2048 x340 +4096 x354 +8192 x368 +16384 x382 +32768 x396 +65536 x410 +16 x229 +32 x243 +64 x257 +128 x271 +256 x285 +512 x299 +1024 x313 +2048 x327 +4096 x341 +8192 x355 +16384 x369 +32768 x383 +65536 x397 +131072 x411 +32 x230 +64 x244 +128 x258 +256 x272 +512 x286 +1024 x300 +2048 x314 +4096 x328 +8192 x342 +16384 x356 +32768 x370 +65536 x384 +131072 x398 +262144 x412 +64 x231 +128 x245 +256 x259 +512 x273 +1024 x287 +2048 x301 +4096 x315 +8192 x329 +16384 x343 +32768 x357 +65536 x371 +131072 x385 +262144 x399 +524288 x413 +128 x232 +256 x246 +512 x260 +1024 x274 +2048 x288 +4096 x302 +8192 x316 +16384 x330 +32768 x344 +65536 x358 +131072 x372 +262144 x386 +524288 x400 +1048576 x414 +256 x233 +512 x247 +1024 x261 +2048 x275 +4096 x289 +8192 x303 +16384 x317 +32768 x331 +65536 x345 +131072 x359 +262144 x373 +524288 x387 +1048576 x401 +2097152 x415 +512 x234 +1024 x248 +2048 x262 +4096 x276 +8192 x290 +16384 x304 +32768 x318 +65536 x332 +131072 x346 +262144 x360 +524288 x374 +1048576 x388 +2097152 x402 +4194304 x416 +1024 x235 +2048 x249 +4096 x263 +8192 x277 +16384 x291 +32768 x305 +65536 x319 +131072 x333 +262144 x347 +524288 x361 +1048576 x375 +2097152 x389 +4194304 x403 +8388608 x417 +2048 x236 +4096 x250 +8192 x264 +16384 x278 +32768 x292 +65536 x306 +131072 x320 +262144 x334 +524288 x348 +1048576 x362 +2097152 x376 +4194304 x390 +8388608 x404 +16777216 x418 +4096 x237 +8192 x251 +16384 x265 +32768 x279 +65536 x293 +131072 x307 +262144 x321 +524288 x335 +1048576 x349 +2097152 x363 +4194304 x377 +8388608 x391 +16777216 x405 +33554432 x419 +8192 x238 +16384 x252 +32768 x266 +65536 x280 +131072 x294 +262144 x308 +524288 x322 +1048576 x336 +2097152 x350 +4194304 x364 +8388608 x378 +16777216 x392 +33554432 x406 +67108864 x420 -1 x421 -2 x422 -4 x423 -8 x424 -16 x425 -32 x426 -64 x427 -128 x428 -256 x429 -512 x430 -1024 x431 -2048 x432 -4096 x433 -8192 x434 -16384 x435 -32768 x436 -65536 x437 -131072 x438 -262144 x439 -524288 x440 -1048576 x441 -2097152 x442 -4194304 x443 -8388608 x444 -16777216 x445 -33554432 x446 -67108864 x447 -134217728 x448 = 0; 
-1 x449 +1 x421 -2 x450 +2 x422 -4 x451 +4 x423 -8 x452 +8 x424 -16 x453 +16 x425 -32 x454 +32 x426 -64 x455 +64 x427 -128 x456 +128 x428 -256 x457 +256 x429 -512 x458 +512 x430 -1024 x459 +1024 x431 -2048 x460 +2048 x432 -4096 x461 +4096 x433 -8192 x462 +8192 x434 -16384 x463 +16384 x435 -32768 x464 +32768 x436 -65536 x465 +65536 x437 -131072 x466 +131072 x438 -262144 x467 +262144 x439 -524288 x468 +524288 x440 -1048576 x469 +1048576 x441 -2097152 x470 +2097152 x442 -4194304 x471 +4194304 x443 -8388608 x472 +8388608 x444 -16777216 x473 +16777216 x445 -33554432 x474 +33554432 x446 -67108864 x475 +67108864 x447 -134217728 x476 +134217728 x448 >= 1 ;
-1 x43 +1 x2 >= 0 ;
-1 x43 +1 x15 >= 0 ;
+1 x43 -1 x2 -1 x15 >= -1 ;
-1 x30 +1 x1 >= 0 ;
-1 x30 +1 x16 >= 0 ;
+1 x30 -1 x1 -1 x16 >= -1 ;
-1 x239 +1 x16 >= 0 ;
-1 x239 +1 x1 >= 0 ;
+1 x239 -1 x16 -1 x1 >= -1 ;
-1 x226 +1 x15 >= 0 ;
-1 x226 +1 x2 >= 0 ;
+1 x226 -1 x15 -1 x2 >= -1 ;
-1 x57 +1 x3 >= 0 ;
-1 x57 +1 x15 >= 0 ;
+1 x57 -1 x3 -1 x15 >= -1 ;
-1 x44 +1 x2 >= 0 ;
-1 x44 +1 x16 >= 0 ;
+1 x44 -1 x2 -1 x16 >= -1 ;
-1 x31 +1 x1 >= 0 ;
-1 x31 +1 x17 >= 0 ;
+1 x31 -1 x1 -1 x17 >= -1 ;
-1 x253 +1 x17 >= 0 ;
-1 x253 +1 x1 >= 0 ;
+1 x253 -1 x17 -1 x1 >= -1 ;
-1 x240 +1 x16 >= 0 ;
-1 x240 +1 x2 >= 0 ;
+1 x240 -1 x16 -1 x2 >= -1 ;
-1 x227 +1 x15 >= 0 ;
-1 x227 +1 x3 >= 0 ;
+1 x227 -1 x15 -1 x3 >= -1 ;
-1 x71 +1 x4 >= 0 ;
-1 x71 +1 x15 >= 0 ;
+1 x71 -1 x4 -1 x15 >= -1 ;
-1 x58 +1 x3 >= 0 ;
-1 x58 +1 x16 >= 0 ;
+1 x58 -1 x3 -1 x16 >= -1 ;
-1 x45 +1 x2 >= 0 ;
-1 x45 +1 x17 >= 0 ;
+1 x45 -1 x2 -1 x17 >= -1 ;
-1 x32 +1 x1 >= 0 ;
-1 x32 +1 x18 >= 0 ;
+1 x32 -1 x1 -1 x18 >= -1 ;
-1 x267 +1 x18 >= 0 ;
-1 x267 +1 x1 >= 0 ;
+1 x267 -1 x18 -1 x1 >= -1 ;
-1 x254 +1 x17 >= 0 ;
-1 x254 +1 x2 >= 0 ;
+1 x254 -1 x17 -1 x2 >= -1 ;
-1 x241 +1 x16 >= 0 ;
-1 x241 +1 x3 >= 0 ;
+1 x241 -1 x16 -1 x3 >= -1 ;
-1 x228 +1 x15 >= 0 ;
-1 x228 +1 x4 >= 0 ;
+1 x228 -1 x15 -1 x4 >= -1 ;
-1 x85 +1 x5 >= 0 ;
-1 x85 +1 x15 >= 0 ;
+1 x85 -1 x5 -1 x15 >= -1 ;
-1 x72 +1 x4 >= 0 ;
-1 x72 +1 x16 >= 0 ;
+1 x72 -1 x4 -1 x16 >= -1 ;
-1 x59 +1 x3 >= 0 ;
-1 x59 +1 x17 >= 0 ;
+1 x59 -1 x3 -1 x17 >= -1 ;
-1 x46 +1 x2 >= 0 ;
-1 x46 +1 x18 >= 0 ;
+1 x46 -1 x2 -1 x18 >= -1 ;
-1 x33 +1 x1 >= 0 ;
-1 x33 +1 x19 >= 0 ;
+1 x33 -1 x1 -1 x19 >= -1 ;
-1 x281 +1 x19 >= 0 ;
-1 x281 +1 x1 >= 0 ;
+1 x281 -1 x19 -1 x1 >= -1 ;
-1 x268 +1 x18 >= 0 ;
-1 x268 +1 x2 >= 0 ;
+1 x268 -1 x18 -1 x2 >= -1 ;
-1 x255 +1 x17 >= 0 ;
-1 x255 +1 x3 >= 0 ;
+1 x255 -1 x17 -1 x3 >= -1 ;
-1 x242 +1 x16 >= 0 ;
-1 x242 +1 x4 >= 0 ;
+1 x242 -1 x16 -1 x4 >= -1 ;
-1 x229 +1 x15 >= 0 ;
-1 x229 +1 x5 >= 0 ;
+1 x229 -1 x15 -1 x5 >= -1 ;
-1 x99 +1 x6 >= 0 ;
-1 x99 +1 x15 >= 0 ;
+1 x99 -1 x6 -1 x15 >= -1 ;
-1 x86 +1 x5 >= 0 ;
-1 x86 +1 x16 >= 0 ;
+1 x86 -1 x5 -1 x16 >= -1 ;
-1 x73 +1 x4 >= 0 ;
-1 x73 +1 x17 >= 0 ;
+1 x73 -1 x4 -1 x17 >= -1 ;
-1 x60 +1 x3 >= 0 ;
-1 x60 +1 x18 >= 0 ;
+1 x60 -1 x3 -1 x18 >= -1 ;
-1 x47 +1 x2 >= 0 ;
-1 x47 +1 x19 >= 0 ;
+1 x47 -1 x2 -1 x19 >= -1 ;
-1 x34 +1 x1 >= 0 ;
-1 x34 +1 x20 >= 0 ;
+1 x34 -1 x1 -1 x20 >= -1 ;
-1 x295 +1 x20 >= 0 ;
-1 x295 +1 x1 >= 0 ;
+1 x295 -1 x20 -1 x1 >= -1 ;
-1 x282 +1 x19 >= 0 ;
-1 x282 +1 x2 >= 0 ;
+1 x282 -1 x19 -1 x2 >= -1 ;
-1 x269 +1 x18 >= 0 ;
-1 x269 +1 x3 >= 0 ;
+1 x269 -1 x18 -1 x3 >= -1 ;
-1 x256 +1 x17 >= 0 ;
-1 x256 +1 x4 >= 0 ;
+1 x256 -1 x17 -1 x4 >= -1 ;
-1 x243 +1 x16 >= 0 ;
-1 x243 +1 x5 >= 0 ;
+1 x243 -1 x16 -1 x5 >= -1 ;
-1 x230 +1 x15 >= 0 ;
-1 x230 +1 x6 >= 0 ;
+1 x230 -1 x15 -1 x6 >= -1 ;
-1 x113 +1 x7 >= 0 ;
-1 x113 +1 x15 >= 0 ;
+1 x113 -1 x7 -1 x15 >= -1 ;
-1 x100 +1 x6 >= 0 ;
-1 x100 +1 x16 >= 0 ;
+1 x100 -1 x6 -1 x16 >= -1 ;
-1 x87 +1 x5 >= 0 ;
-1 x87 +1 x17 >= 0 ;
+1 x87 -1 x5 -1 x17 >= -1 ;
-1 x74 +1 x4 >= 0 ;
-1 x74 +1 x18 >= 0 ;
+1 x74 -1 x4 -1 x18 >= -1 ;
-1 x61 +1 x3 >= 0 ;
-1 x61 +1 x19 >= 0 ;
+1 x61 -1 x3 -1 x19 >= -1 ;
-1 x48 +1 x2 >= 0 ;
-1 x48 +1 x20 >= 0 ;
+1 x48 -1 x2 -1 x20 >= -1 ;
-1 x35 +1 x1 >= 0 ;
-1 x35 +1 x21 >= 0 ;
+1 x35 -1 x1 -1 x21 >= -1 ;
-1 x309 +1 x21 >= 0 ;
-1 x309 +1 x1 >= 0 ;
+1 x309 -1 x21 -1 x1 >= -1 ;
-1 x296 +1 x20 >= 0 ;
-1 x296 +1 x2 >= 0 ;
+1 x296 -1 x20 -1 x2 >= -1 ;
-1 x283 +1 x19 >= 0 ;
-1 x283 +1 x3 >= 0 ;
+1 x283 -1 x19 -1 x3 >= -1 ;
-1 x270 +1 x18 >= 0 ;
-1 x270 +1 x4 >= 0 ;
+1 x270 -1 x18 -1 x4 >= -1 ;
-1 x257 +1 x17 >= 0 ;
-1 x257 +1 x5 >= 0 ;
+1 x257 -1 x17 -1 x5 >= -1 ;
-1 x244 +1 x16 >= 0 ;
-1 x244 +1 x6 >= 0 ;
+1 x244 -1 x16 -1 x6 >= -1 ;
-1 x231 +1 x15 >= 0 ;
-1 x231 +1 x7 >= 0 ;
+1 x231 -1 x15 -1 x7 >= -1 ;
-1 x127 +1 x8 >= 0 ;
-1 x127 +1 x15 >= 0 ;
+1 x127 -1 x8 -1 x15 >= -1 ;
-1 x114 +1 x7 >= 0 ;
-1 x114 +1 x16 >= 0 ;
+1 x114 -1 x7 -1 x16 >= -1 ;
-1 x101 +1 x6 >= 0 ;
-1 x101 +1 x17 >= 0 ;
+1 x101 -1 x6 -1 x17 >= -1 ;
-1 x88 +1 x5 >= 0 ;
-1 x88 +1 x18 >= 0 ;
+1 x88 -1 x5 -1 x18 >= -1 ;
-1 x75 +1 x4 >= 0 ;
-1 x75 +1 x19 >= 0 ;
+1 x75 -1 x4 -1 x19 >= -1 ;
-1 x62 +1 x3 >= 0 ;
-1 x62 +1 x20 >= 0 ;
+1 x62 -1 x3 -1 x20 >= -1 ;
-1 x49 +1 x2 >= 0 ;
-1 x49 +1 x21 >= 0 ;
+1 x49 -1 x2 -1 x21 >= -1 ;
-1 x36 +1 x1 >= 0 ;
-1 x36 +1 x22 >= 0 ;
+1 x36 -1 x1 -1 x22 >= -1 ;
-1 x323 +1 x22 >= 0 ;
-1 x323 +1 x1 >= 0 ;
+1 x323 -1 x22 -1 x1 >= -1 ;
-1 x310 +1 x21 >= 0 ;
-1 x310 +1 x2 >= 0 ;
+1 x310 -1 x21 -1 x2 >= -1 ;
-1 x297 +1 x20 >= 0 ;
-1 x297 +1 x3 >= 0 ;
+1 x297 -1 x20 -1 x3 >= -1 ;
-1 x284 +1 x19 >= 0 ;
-1 x284 +1 x4 >= 0 ;
+1 x284 -1 x19 -1 x4 >= -1 ;
-1 x271 +1 x18 >= 0 ;
-1 x271 +1 x5 >= 0 ;
+1 x271 -1 x18 -1 x5 >= -1 ;
-1 x258 +1 x17 >= 0 ;
-1 x258 +1 x6 >= 0 ;
+1 x258 -1 x17 -1 x6 >= -1 ;
-1 x245 +1 x16 >= 0 ;
-1 x245 +1 x7 >= 0 ;
+1 x245 -1 x16 -1 x7 >= -1 ;
-1 x232 +1 x15 >= 0 ;
-1 x232 +1 x8 >= 0 ;
+1 x232 -1 x15 -1 x8 >= -1 ;
-1 x141 +1 x9 >= 0 ;
-1 x141 +1 x15 >= 0 ;
+1 x141 -1 x9 -1 x15 >= -1 ;
-1 x128 +1 x8 >= 0 ;
-1 x128 +1 x16 >= 0 ;
+1 x128 -1 x8 -1 x16 >= -1 ;
-1 x115 +1 x7 >= 0 ;
-1 x115 +1 x17 >= 0 ;
+1 x115 -1 x7 -1 x17 >= -1 ;
-1 x102 +1 x6 >= 0 ;
-1 x102 +1 x18 >= 0 ;
+1 x102 -1 x6 -1 x18 >= -1 ;
-1 x89 +1 x5 >= 0 ;
-1 x89 +1 x19 >= 0 ;
+1 x89 -1 x5 -1 x19 >= -1 ;
-1 x76 +1 x4 >= 0 ;
-1 x76 +1 x20 >= 0 ;
+1 x76 -1 x4 -1 x20 >= -1 ;
-1 x63 +1 x3 >= 0 ;
-1 x63 +1 x21 >= 0 ;
+1 x63 -1 x3 -1 x21 >= -1 ;
-1 x50 +1 x2 >= 0 ;
-1 x50 +1 x22 >= 0 ;
+1 x50 -1 x2 -1 x22 >= -1 ;
-1 x37 +1 x1 >= 0 ;
-1 x37 +1 x23 >= 0 ;
+1 x37 -1 x1 -1 x23 >= -1 ;
-1 x337 +1 x23 >= 0 ;
-1 x337 +1 x1 >= 0 ;
+1 x337 -1 x23 -1 x1 >= -1 ;
-1 x324 +1 x22 >= 0 ;
-1 x324 +1 x2 >= 0 ;
+1 x324 -1 x22 -1 x2 >= -1 ;
-1 x311 +1 x21 >= 0 ;
-1 x311 +1 x3 >= 0 ;
+1 x311 -1 x21 -1 x3 >= -1 ;
-1 x298 +1 x20 >= 0 ;
-1 x298 +1 x4 >= 0 ;
+1 x298 -1 x20 -1 x4 >= -1 ;
-1 x285 +1 x19 >= 0 ;
-1 x285 +1 x5 >= 0 ;
+1 x285 -1 x19 -1 x5 >= -1 ;
-1 x272 +1 x18 >= 0 ;
-1 x272 +1 x6 >= 0 ;
+1 x272 -1 x18 -1 x6 >= -1 ;
-1 x259 +1 x17 >= 0 ;
-1 x259 +1 x7 >= 0 ;
+1 x259 -1 x17 -1 x7 >= -1 ;
-1 x246 +1 x16 >= 0 ;
-1 x246 +1 x8 >= 0 ;
+1 x246 -1 x16 -1 x8 >= -1 ;
-1 x233 +1 x15 >= 0 ;
-1 x233 +1 x9 >= 0 ;
+1 x233 -1 x15 -1 x9 >= -1 ;
-1 x155 +1 x10 >= 0 ;
-1 x155 +1 x15 >= 0 ;
+1 x155 -1 x10 -1 x15 >= -1 ;
-1 x142 +1 x9 >= 0 ;
-1 x142 +1 x16 >= 0 ;
+1 x142 -1 x9 -1 x16 >= -1 ;
-1 x129 +1 x8 >= 0 ;
-1 x129 +1 x17 >= 0 ;
+1 x129 -1 x8 -1 x17 >= -1 ;
-1 x116 +1 x7 >= 0 ;
-1 x116 +1 x18 >= 0 ;
+1 x116 -1 x7 -1 x18 >= -1 ;
-1 x103 +1 x6 >= 0 ;
-1 x103 +1 x19 >= 0 ;
+1 x103 -1 x6 -1 x19 >= -1 ;
-1 x90 +1 x5 >= 0 ;
-1 x90 +1 x20 >= 0 ;
+1 x90 -1 x5 -1 x20 >= -1 ;
-1 x77 +1 x4 >= 0 ;
-1 x77 +1 x21 >= 0 ;
+1 x77 -1 x4 -1 x21 >= -1 ;
-1 x64 +1 x3 >= 0 ;
-1 x64 +1 x22 >= 0 ;
+1 x64 -1 x3 -1 x22 >= -1 ;
-1 x51 +1 x2 >= 0 ;
-1 x51 +1 x23 >= 0 ;
+1 x51 -1 x2 -1 x23 >= -1 ;
-1 x38 +1 x1 >= 0 ;
-1 x38 +1 x24 >= 0 ;
+1 x38 -1 x1 -1 x24 >= -1 ;
-1 x351 +1 x24 >= 0 ;
-1 x351 +1 x1 >= 0 ;
+1 x351 -1 x24 -1 x1 >= -1 ;
-1 x338 +1 x23 >= 0 ;
-1 x338 +1 x2 >= 0 ;
+1 x338 -1 x23 -1 x2 >= -1 ;
-1 x325 +1 x22 >= 0 ;
-1 x325 +1 x3 >= 0 ;
+1 x325 -1 x22 -1 x3 >= -1 ;
-1 x312 +1 x21 >= 0 ;
-1 x312 +1 x4 >= 0 ;
+1 x312 -1 x21 -1 x4 >= -1 ;
-1 x299 +1 x20 >= 0 ;
-1 x299 +1 x5 >= 0 ;
+1 x299 -1 x20 -1 x5 >= -1 ;
-1 x286 +1 x19 >= 0 ;
-1 x286 +1 x6 >= 0 ;
+1 x286 -1 x19 -1 x6 >= -1 ;
-1 x273 +1 x18 >= 0 ;
-1 x273 +1 x7 >= 0 ;
+1 x273 -1 x18 -1 x7 >= -1 ;
-1 x260 +1 x17 >= 0 ;
-1 x260 +1 x8 >= 0 ;
+1 x260 -1 x17 -1 x8 >= -1 ;
-1 x247 +1 x16 >= 0 ;
-1 x247 +1 x9 >= 0 ;
+1 x247 -1 x16 -1 x9 >= -1 ;
-1 x234 +1 x15 >= 0 ;
-1 x234 +1 x10 >= 0 ;
+1 x234 -1 x15 -1 x10 >= -1 ;
-1 x169 +1 x11 >= 0 ;
-1 x169 +1 x15 >= 0 ;
+1 x169 -1 x11 -1 x15 >= -1 ;
-1 x156 +1 x10 >= 0 ;
-1 x156 +1 x16 >= 0 ;
+1 x156 -1 x10 -1 x16 >= -1 ;
-1 x143 +1 x9 >= 0 ;
-1 x143 +1 x17 >= 0 ;
+1 x143 -1 x9 -1 x17 >= -1 ;
-1 x130 +1 x8 >= 0 ;
-1 x130 +1 x18 >= 0 ;
+1 x130 -1 x8 -1 x18 >= -1 ;
-1 x117 +1 x7 >= 0 ;
-1 x117 +1 x19 >= 0 ;
+1 x117 -1 x7 -1 x19 >= -1 ;
-1 x104 +1 x6 >= 0 ;
-1 x104 +1 x20 >= 0 ;
+1 x104 -1 x6 -1 x20 >= -1 ;
-1 x91 +1 x5 >= 0 ;
-1 x91 +1 x21 >= 0 ;
+1 x91 -1 x5 -1 x21 >= -1 ;
-1 x78 +1 x4 >= 0 ;
-1 x78 +1 x22 >= 0 ;
+1 x78 -1 x4 -1 x22 >= -1 ;
-1 x65 +1 x3 >= 0 ;
-1 x65 +1 x23 >= 0 ;
+1 x65 -1 x3 -1 x23 >= -1 ;
-1 x52 +1 x2 >= 0 ;
-1 x52 +1 x24 >= 0 ;
+1 x52 -1 x2 -1 x24 >= -1 ;
-1 x39 +1 x1 >= 0 ;
-1 x39 +1 x25 >= 0 ;
+1 x39 -1 x1 -1 x25 >= -1 ;
-1 x365 +1 x25 >= 0 ;
-1 x365 +1 x1 >= 0 ;
+1 x365 -1 x25 -1 x1 >= -1 ;
-1 x352 +1 x24 >= 0 ;
-1 x352 +1 x2 >= 0 ;
+1 x352 -1 x24 -1 x2 >= -1 ;
-1 x339 +1 x23 >= 0 ;
-1 x339 +1 x3 >= 0 ;
+1 x339 -1 x23 -1 x3 >= -1 ;
-1 x326 +1 x22 >= 0 ;
-1 x326 +1 x4 >= 0 ;
+1 x326 -1 x22 -1 x4 >= -1 ;
-1 x313 +1 x21 >= 0 ;
-1 x313 +1 x5 >= 0 ;
+1 x313 -1 x21 -1 x5 >= -1 ;
-1 x300 +1 x20 >= 0 ;
-1 x300 +1 x6 >= 0 ;
+1 x300 -1 x20 -1 x6 >= -1 ;
-1 x287 +1 x19 >= 0 ;
-1 x287 +1 x7 >= 0 ;
+1 x287 -1 x19 -1 x7 >= -1 ;
-1 x274 +1 x18 >= 0 ;
-1 x274 +1 x8 >= 0 ;
+1 x274 -1 x18 -1 x8 >= -1 ;
-1 x261 +1 x17 >= 0 ;
-1 x261 +1 x9 >= 0 ;
+1 x261 -1 x17 -1 x9 >= -1 ;
-1 x248 +1 x16 >= 0 ;
-1 x248 +1 x10 >= 0 ;
+1 x248 -1 x16 -1 x10 >= -1 ;
-1 x235 +1 x15 >= 0 ;
-1 x235 +1 x11 >= 0 ;
+1 x235 -1 x15 -1 x11 >= -1 ;
-1 x183 +1 x12 >= 0 ;
-1 x183 +1 x15 >= 0 ;
+1 x183 -1 x12 -1 x15 >= -1 ;
-1 x170 +1 x11 >= 0 ;
-1 x170 +1 x16 >= 0 ;
+1 x170 -1 x11 -1 x16 >= -1 ;
-1 x157 +1 x10 >= 0 ;
-1 x157 +1 x17 >= 0 ;
+1 x157 -1 x10 -1 x17 >= -1 ;
-1 x144 +1 x9 >= 0 ;
-1 x144 +1 x18 >= 0 ;
+1 x144 -1 x9 -1 x18 >= -1 ;
-1 x131 +1 x8 >= 0 ;
-1 x131 +1 x19 >= 0 ;
+1 x131 -1 x8 -1 x19 >= -1 ;
-1 x118 +1 x7 >= 0 ;
-1 x118 +1 x20 >= 0 ;
+1 x118 -1 x7 -1 x20 >= -1 ;
-1 x105 +1 x6 >= 0 ;
-1 x105 +1 x21 >= 0 ;
+1 x105 -1 x6 -1 x21 >= -1 ;
-1 x92 +1 x5 >= 0 ;
-1 x92 +1 x22 >= 0 ;
+1 x92 -1 x5 -1 x22 >= -1 ;
-1 x79 +1 x4 >= 0 ;
-1 x79 +1 x23 >= 0 ;
+1 x79 -1 x4 -1 x23 >= -1 ;
-1 x66 +1 x3 >= 0 ;
-1 x66 +1 x24 >= 0 ;
+1 x66 -1 x3 -1 x24 >= -1 ;
-1 x53 +1 x2 >= 0 ;
-1 x53 +1 x25 >= 0 ;
+1 x53 -1 x2 -1 x25 >= -1 ;
-1 x40 +1 x1 >= 0 ;
-1 x40 +1 x26 >= 0 ;
+1 x40 -1 x1 -1 x26 >= -1 ;
-1 x379 +1 x26 >= 0 ;
-1 x379 +1 x1 >= 0 ;
+1 x379 -1 x26 -1 x1 >= -1 ;
-1 x366 +1 x25 >= 0 ;
-1 x366 +1 x2 >= 0 ;
+1 x366 -1 x25 -1 x2 >= -1 ;
-1 x353 +1 x24 >= 0 ;
-1 x353 +1 x3 >= 0 ;
+1 x353 -1 x24 -1 x3 >= -1 ;
-1 x340 +1 x23 >= 0 ;
-1 x340 +1 x4 >= 0 ;
+1 x340 -1 x23 -1 x4 >= -1 ;
-1 x327 +1 x22 >= 0 ;
-1 x327 +1 x5 >= 0 ;
+1 x327 -1 x22 -1 x5 >= -1 ;
-1 x314 +1 x21 >= 0 ;
-1 x314 +1 x6 >= 0 ;
+1 x314 -1 x21 -1 x6 >= -1 ;
-1 x301 +1 x20 >= 0 ;
-1 x301 +1 x7 >= 0 ;
+1 x301 -1 x20 -1 x7 >= -1 ;
-1 x288 +1 x19 >= 0 ;
-1 x288 +1 x8 >= 0 ;
+1 x288 -1 x19 -1 x8 >= -1 ;
-1 x275 +1 x18 >= 0 ;
-1 x275 +1 x9 >= 0 ;
+1 x275 -1 x18 -1 x9 >= -1 ;
-1 x262 +1 x17 >= 0 ;
-1 x262 +1 x10 >= 0 ;
+1 x262 -1 x17 -1 x10 >= -1 ;
-1 x249 +1 x16 >= 0 ;
-1 x249 +1 x11 >= 0 ;
+1 x249 -1 x16 -1 x11 >= -1 ;
-1 x236 +1 x15 >= 0 ;
-1 x236 +1 x12 >= 0 ;
+1 x236 -1 x15 -1 x12 >= -1 ;
-1 x197 +1 x13 >= 0 ;
-1 x197 +1 x15 >= 0 ;
+1 x197 -1 x13 -1 x15 >= -1 ;
-1 x184 +1 x12 >= 0 ;
-1 x184 +1 x16 >= 0 ;
+1 x184 -1 x12 -1 x16 >= -1 ;
-1 x171 +1 x11 >= 0 ;
-1 x171 +1 x17 >= 0 ;
+1 x171 -1 x11 -1 x17 >= -1 ;
-1 x158 +1 x10 >= 0 ;
-1 x158 +1 x18 >= 0 ;
+1 x158 -1 x10 -1 x18 >= -1 ;
-1 x145 +1 x9 >= 0 ;
-1 x145 +1 x19 >= 0 ;
+1 x145 -1 x9 -1 x19 >= -1 ;
-1 x132 +1 x8 >= 0 ;
-1 x132 +1 x20 >= 0 ;
+1 x132 -1 x8 -1 x20 >= -1 ;
-1 x119 +1 x7 >= 0 ;
-1 x119 +1 x21 >= 0 ;
+1 x119 -1 x7 -1 x21 >= -1 ;
-1 x106 +1 x6 >= 0 ;
-1 x106 +1 x22 >= 0 ;
+1 x106 -1 x6 -1 x22 >= -1 ;
-1 x93 +1 x5 >= 0 ;
-1 x93 +1 x23 >= 0 ;
+1 x93 -1 x5 -1 x23 >= -1 ;
-1 x80 +1 x4 >= 0 ;
-1 x80 +1 x24 >= 0 ;
+1 x80 -1 x4 -1 x24 >= -1 ;
-1 x67 +1 x3 >= 0 ;
-1 x67 +1 x25 >= 0 ;
+1 x67 -1 x3 -1 x25 >= -1 ;
-1 x54 +1 x2 >= 0 ;
-1 x54 +1 x26 >= 0 ;
+1 x54 -1 x2 -1 x26 >= -1 ;
-1 x41 +1 x1 >= 0 ;
-1 x41 +1 x27 >= 0 ;
+1 x41 -1 x1 -1 x27 >= -1 ;
-1 x393 +1 x27 >= 0 ;
-1 x393 +1 x1 >= 0 ;
+1 x393 -1 x27 -1 x1 >= -1 ;
-1 x380 +1 x26 >= 0 ;
-1 x380 +1 x2 >= 0 ;
+1 x380 -1 x26 -1 x2 >= -1 ;
-1 x367 +1 x25 >= 0 ;
-1 x367 +1 x3 >= 0 ;
+1 x367 -1 x25 -1 x3 >= -1 ;
-1 x354 +1 x24 >= 0 ;
-1 x354 +1 x4 >= 0 ;
+1 x354 -1 x24 -1 x4 >= -1 ;
-1 x341 +1 x23 >= 0 ;
-1 x341 +1 x5 >= 0 ;
+1 x341 -1 x23 -1 x5 >= -1 ;
-1 x328 +1 x22 >= 0 ;
-1 x328 +1 x6 >= 0 ;
+1 x328 -1 x22 -1 x6 >= -1 ;
-1 x315 +1 x21 >= 0 ;
-1 x315 +1 x7 >= 0 ;
+1 x315 -1 x21 -1 x7 >= -1 ;
-1 x302 +1 x20 >= 0 ;
-1 x302 +1 x8 >= 0 ;
+1 x302 -1 x20 -1 x8 >= -1 ;
-1 x289 +1 x19 >= 0 ;
-1 x289 +1 x9 >= 0 ;
+1 x289 -1 x19 -1 x9 >= -1 ;
-1 x276 +1 x18 >= 0 ;
-1 x276 +1 x10 >= 0 ;
+1 x276 -1 x18 -1 x10 >= -1 ;
-1 x263 +1 x17 >= 0 ;
-1 x263 +1 x11 >= 0 ;
+1 x263 -1 x17 -1 x11 >= -1 ;
-1 x250 +1 x16 >= 0 ;
-1 x250 +1 x12 >= 0 ;
+1 x250 -1 x16 -1 x12 >= -1 ;
-1 x237 +1 x15 >= 0 ;
-1 x237 +1 x13 >= 0 ;
+1 x237 -1 x15 -1 x13 >= -1 ;
-1 x211 +1 x14 >= 0 ;
-1 x211 +1 x15 >= 0 ;
+1 x211 -1 x14 -1 x15 >= -1 ;
-1 x198 +1 x13 >= 0 ;
-1 x198 +1 x16 >= 0 ;
+1 x198 -1 x13 -1 x16 >= -1 ;
-1 x185 +1 x12 >= 0 ;
-1 x185 +1 x17 >= 0 ;
+1 x185 -1 x12 -1 x17 >= -1 ;
-1 x172 +1 x11 >= 0 ;
-1 x172 +1 x18 >= 0 ;
+1 x172 -1 x11 -1 x18 >= -1 ;
-1 x159 +1 x10 >= 0 ;
-1 x159 +1 x19 >= 0 ;
+1 x159 -1 x10 -1 x19 >= -1 ;
-1 x146 +1 x9 >= 0 ;
-1 x146 +1 x20 >= 0 ;
+1 x146 -1 x9 -1 x20 >= -1 ;
-1 x133 +1 x8 >= 0 ;
-1 x133 +1 x21 >= 0 ;
+1 x133 -1 x8 -1 x21 >= -1 ;
-1 x120 +1 x7 >= 0 ;
-1 x120 +1 x22 >= 0 ;
+1 x120 -1 x7 -1 x22 >= -1 ;
-1 x107 +1 x6 >= 0 ;
-1 x107 +1 x23 >= 0 ;
+1 x107 -1 x6 -1 x23 >= -1 ;
-1 x94 +1 x5 >= 0 ;
-1 x94 +1 x24 >= 0 ;
+1 x94 -1 x5 -1 x24 >= -1 ;
-1 x81 +1 x4 >= 0 ;
-1 x81 +1 x25 >= 0 ;
+1 x81 -1 x4 -1 x25 >= -1 ;
-1 x68 +1 x3 >= 0 ;
-1 x68 +1 x26 >= 0 ;
+1 x68 -1 x3 -1 x26 >= -1 ;
-1 x55 +1 x2 >= 0 ;
-1 x55 +1 x27 >= 0 ;
+1 x55 -1 x2 -1 x27 >= -1 ;
-1 x42 +1 x1 >= 0 ;
-1 x42 +1 x28 >= 0 ;
+1 x42 -1 x1 -1 x28 >= -1 ;
-1 x407 +1 x28 >= 0 ;
-1 x407 +1 x1 >= 0 ;
+1 x407 -1 x28 -1 x1 >= -1 ;
-1 x394 +1 x27 >= 0 ;
-1 x394 +1 x2 >= 0 ;
+1 x394 -1 x27 -1 x2 >= -1 ;
-1 x381 +1 x26 >= 0 ;
-1 x381 +1 x3 >= 0 ;
+1 x381 -1 x26 -1 x3 >= -1 ;
-1 x368 +1 x25 >= 0 ;
-1 x368 +1 x4 >= 0 ;
+1 x368 -1 x25 -1 x4 >= -1 ;
-1 x355 +1 x24 >= 0 ;
-1 x355 +1 x5 >= 0 ;
+1 x355 -1 x24 -1 x5 >= -1 ;
-1 x342 +1 x23 >= 0 ;
-1 x342 +1 x6 >= 0 ;
+1 x342 -1 x23 -1 x6 >= -1 ;
-1 x329 +1 x22 >= 0 ;
-1 x329 +1 x7 >= 0 ;
+1 x329 -1 x22 -1 x7 >= -1 ;
-1 x316 +1 x21 >= 0 ;
-1 x316 +1 x8 >= 0 ;
+1 x316 -1 x21 -1 x8 >= -1 ;
-1 x303 +1 x20 >= 0 ;
-1 x303 +1 x9 >= 0 ;
+1 x303 -1 x20 -1 x9 >= -1 ;
-1 x290 +1 x19 >= 0 ;
-1 x290 +1 x10 >= 0 ;
+1 x290 -1 x19 -1 x10 >= -1 ;
-1 x277 +1 x18 >= 0 ;
-1 x277 +1 x11 >= 0 ;
+1 x277 -1 x18 -1 x11 >= -1 ;
-1 x264 +1 x17 >= 0 ;
-1 x264 +1 x12 >= 0 ;
+1 x264 -1 x17 -1 x12 >= -1 ;
-1 x251 +1 x16 >= 0 ;
-1 x251 +1 x13 >= 0 ;
+1 x251 -1 x16 -1 x13 >= -1 ;
-1 x238 +1 x15 >= 0 ;
-1 x238 +1 x14 >= 0 ;
+1 x238 -1 x15 -1 x14 >= -1 ;
-1 x212 +1 x14 >= 0 ;
-1 x212 +1 x16 >= 0 ;
+1 x212 -1 x14 -1 x16 >= -1 ;
-1 x199 +1 x13 >= 0 ;
-1 x199 +1 x17 >= 0 ;
+1 x199 -1 x13 -1 x17 >= -1 ;
-1 x186 +1 x12 >= 0 ;
-1 x186 +1 x18 >= 0 ;
+1 x186 -1 x12 -1 x18 >= -1 ;
-1 x173 +1 x11 >= 0 ;
-1 x173 +1 x19 >= 0 ;
+1 x173 -1 x11 -1 x19 >= -1 ;
-1 x160 +1 x10 >= 0 ;
-1 x160 +1 x20 >= 0 ;
+1 x160 -1 x10 -1 x20 >= -1 ;
-1 x147 +1 x9 >= 0 ;
-1 x147 +1 x21 >= 0 ;
+1 x147 -1 x9 -1 x21 >= -1 ;
-1 x134 +1 x8 >= 0 ;
-1 x134 +1 x22 >= 0 ;
+1 x134 -1 x8 -1 x22 >= -1 ;
-1 x121 +1 x7 >= 0 ;
-1 x121 +1 x23 >= 0 ;
+1 x121 -1 x7 -1 x23 >= -1 ;
-1 x108 +1 x6 >= 0 ;
-1 x108 +1 x24 >= 0 ;
+1 x108 -1 x6 -1 x24 >= -1 ;
-1 x95 +1 x5 >= 0 ;
-1 x95 +1 x25 >= 0 ;
+1 x95 -1 x5 -1 x25 >= -1 ;
-1 x82 +1 x4 >= 0 ;
-1 x82 +1 x26 >= 0 ;
+1 x82 -1 x4 -1 x26 >= -1 ;
-1 x69 +1 x3 >= 0 ;
-1 x69 +1 x27 >= 0 ;
+1 x69 -1 x3 -1 x27 >= -1 ;
-1 x56 +1 x2 >= 0 ;
-1 x56 +1 x28 >= 0 ;
+1 x56 -1 x2 -1 x28 >= -1 ;
-1 x408 +1 x28 >= 0 ;
-1 x408 +1 x2 >= 0 ;
+1 x408 -1 x28 -1 x2 >= -1 ;
-1 x395 +1 x27 >= 0 ;
-1 x395 +1 x3 >= 0 ;
+1 x395 -1 x27 -1 x3 >= -1 ;
-1 x382 +1 x26 >= 0 ;
-1 x382 +1 x4 >= 0 ;
+1 x382 -1 x26 -1 x4 >= -1 ;
-1 x369 +1 x25 >= 0 ;
-1 x369 +1 x5 >= 0 ;
+1 x369 -1 x25 -1 x5 >= -1 ;
-1 x356 +1 x24 >= 0 ;
-1 x356 +1 x6 >= 0 ;
+1 x356 -1 x24 -1 x6 >= -1 ;
-1 x343 +1 x23 >= 0 ;
-1 x343 +1 x7 >= 0 ;
+1 x343 -1 x23 -1 x7 >= -1 ;
-1 x330 +1 x22 >= 0 ;
-1 x330 +1 x8 >= 0 ;
+1 x330 -1 x22 -1 x8 >= -1 ;
-1 x317 +1 x21 >= 0 ;
-1 x317 +1 x9 >= 0 ;
+1 x317 -1 x21 -1 x9 >= -1 ;
-1 x304 +1 x20 >= 0 ;
-1 x304 +1 x10 >= 0 ;
+1 x304 -1 x20 -1 x10 >= -1 ;
-1 x291 +1 x19 >= 0 ;
-1 x291 +1 x11 >= 0 ;
+1 x291 -1 x19 -1 x11 >= -1 ;
-1 x278 +1 x18 >= 0 ;
-1 x278 +1 x12 >= 0 ;
+1 x278 -1 x18 -1 x12 >= -1 ;
-1 x265 +1 x17 >= 0 ;
-1 x265 +1 x13 >= 0 ;
+1 x265 -1 x17 -1 x13 >= -1 ;
-1 x252 +1 x16 >= 0 ;
-1 x252 +1 x14 >= 0 ;
+1 x252 -1 x16 -1 x14 >= -1 ;
-1 x213 +1 x14 >= 0 ;
-1 x213 +1 x17 >= 0 ;
+1 x213 -1 x14 -1 x17 >= -1 ;
-1 x200 +1 x13 >= 0 ;
-1 x200 +1 x18 >= 0 ;
+1 x200 -1 x13 -1 x18 >= -1 ;
-1 x187 +1 x12 >= 0 ;
-1 x187 +1 x19 >= 0 ;
+1 x187 -1 x12 -1 x19 >= -1 ;
-1 x174 +1 x11 >= 0 ;
-1 x174 +1 x20 >= 0 ;
+1 x174 -1 x11 -1 x20 >= -1 ;
-1 x161 +1 x10 >= 0 ;
-1 x161 +1 x21 >= 0 ;
+1 x161 -1 x10 -1 x21 >= -1 ;
-1 x148 +1 x9 >= 0 ;
-1 x148 +1 x22 >= 0 ;
+1 x148 -1 x9 -1 x22 >= -1 ;
-1 x135 +1 x8 >= 0 ;
-1 x135 +1 x23 >= 0 ;
+1 x135 -1 x8 -1 x23 >= -1 ;
-1 x122 +1 x7 >= 0 ;
-1 x122 +1 x24 >= 0 ;
+1 x122 -1 x7 -1 x24 >= -1 ;
-1 x109 +1 x6 >= 0 ;
-1 x109 +1 x25 >= 0 ;
+1 x109 -1 x6 -1 x25 >= -1 ;
-1 x96 +1 x5 >= 0 ;
-1 x96 +1 x26 >= 0 ;
+1 x96 -1 x5 -1 x26 >= -1 ;
-1 x83 +1 x4 >= 0 ;
-1 x83 +1 x27 >= 0 ;
+1 x83 -1 x4 -1 x27 >= -1 ;
-1 x70 +1 x3 >= 0 ;
-1 x70 +1 x28 >= 0 ;
+1 x70 -1 x3 -1 x28 >= -1 ;
-1 x409 +1 x28 >= 0 ;
-1 x409 +1 x3 >= 0 ;
+1 x409 -1 x28 -1 x3 >= -1 ;
-1 x396 +1 x27 >= 0 ;
-1 x396 +1 x4 >= 0 ;
+1 x396 -1 x27 -1 x4 >= -1 ;
-1 x383 +1 x26 >= 0 ;
-1 x383 +1 x5 >= 0 ;
+1 x383 -1 x26 -1 x5 >= -1 ;
-1 x370 +1 x25 >= 0 ;
-1 x370 +1 x6 >= 0 ;
+1 x370 -1 x25 -1 x6 >= -1 ;
-1 x357 +1 x24 >= 0 ;
-1 x357 +1 x7 >= 0 ;
+1 x357 -1 x24 -1 x7 >= -1 ;
-1 x344 +1 x23 >= 0 ;
-1 x344 +1 x8 >= 0 ;
+1 x344 -1 x23 -1 x8 >= -1 ;
-1 x331 +1 x22 >= 0 ;
-1 x331 +1 x9 >= 0 ;
+1 x331 -1 x22 -1 x9 >= -1 ;
-1 x318 +1 x21 >= 0 ;
-1 x318 +1 x10 >= 0 ;
+1 x318 -1 x21 -1 x10 >= -1 ;
-1 x305 +1 x20 >= 0 ;
-1 x305 +1 x11 >= 0 ;
+1 x305 -1 x20 -1 x11 >= -1 ;
-1 x292 +1 x19 >= 0 ;
-1 x292 +1 x12 >= 0 ;
+1 x292 -1 x19 -1 x12 >= -1 ;
-1 x279 +1 x18 >= 0 ;
-1 x279 +1 x13 >= 0 ;
+1 x279 -1 x18 -1 x13 >= -1 ;
-1 x266 +1 x17 >= 0 ;
-1 x266 +1 x14 >= 0 ;
+1 x266 -1 x17 -1 x14 >= -1 ;
-1 x214 +1 x14 >= 0 ;
-1 x214 +1 x18 >= 0 ;
+1 x214 -1 x14 -1 x18 >= -1 ;
-1 x201 +1 x13 >= 0 ;
-1 x201 +1 x19 >= 0 ;
+1 x201 -1 x13 -1 x19 >= -1 ;
-1 x188 +1 x12 >= 0 ;
-1 x188 +1 x20 >= 0 ;
+1 x188 -1 x12 -1 x20 >= -1 ;
-1 x175 +1 x11 >= 0 ;
-1 x175 +1 x21 >= 0 ;
+1 x175 -1 x11 -1 x21 >= -1 ;
-1 x162 +1 x10 >= 0 ;
-1 x162 +1 x22 >= 0 ;
+1 x162 -1 x10 -1 x22 >= -1 ;
-1 x149 +1 x9 >= 0 ;
-1 x149 +1 x23 >= 0 ;
+1 x149 -1 x9 -1 x23 >= -1 ;
-1 x136 +1 x8 >= 0 ;
-1 x136 +1 x24 >= 0 ;
+1 x136 -1 x8 -1 x24 >= -1 ;
-1 x123 +1 x7 >= 0 ;
-1 x123 +1 x25 >= 0 ;
+1 x123 -1 x7 -1 x25 >= -1 ;
-1 x110 +1 x6 >= 0 ;
-1 x110 +1 x26 >= 0 ;
+1 x110 -1 x6 -1 x26 >= -1 ;
-1 x97 +1 x5 >= 0 ;
-1 x97 +1 x27 >= 0 ;
+1 x97 -1 x5 -1 x27 >= -1 ;
-1 x84 +1 x4 >= 0 ;
-1 x84 +1 x28 >= 0 ;
+1 x84 -1 x4 -1 x28 >= -1 ;
-1 x410 +1 x28 >= 0 ;
-1 x410 +1 x4 >= 0 ;
+1 x410 -1 x28 -1 x4 >= -1 ;
-1 x397 +1 x27 >= 0 ;
-1 x397 +1 x5 >= 0 ;
+1 x397 -1 x27 -1 x5 >= -1 ;
-1 x384 +1 x26 >= 0 ;
-1 x384 +1 x6 >= 0 ;
+1 x384 -1 x26 -1 x6 >= -1 ;
-1 x371 +1 x25 >= 0 ;
-1 x371 +1 x7 >= 0 ;
+1 x371 -1 x25 -1 x7 >= -1 ;
-1 x358 +1 x24 >= 0 ;
-1 x358 +1 x8 >= 0 ;
+1 x358 -1 x24 -1 x8 >= -1 ;
-1 x345 +1 x23 >= 0 ;
-1 x345 +1 x9 >= 0 ;
+1 x345 -1 x23 -1 x9 >= -1 ;
-1 x332 +1 x22 >= 0 ;
-1 x332 +1 x10 >= 0 ;
+1 x332 -1 x22 -1 x10 >= -1 ;
-1 x319 +1 x21 >= 0 ;
-1 x319 +1 x11 >= 0 ;
+1 x319 -1 x21 -1 x11 >= -1 ;
-1 x306 +1 x20 >= 0 ;
-1 x306 +1 x12 >= 0 ;
+1 x306 -1 x20 -1 x12 >= -1 ;
-1 x293 +1 x19 >= 0 ;
-1 x293 +1 x13 >= 0 ;
+1 x293 -1 x19 -1 x13 >= -1 ;
-1 x280 +1 x18 >= 0 ;
-1 x280 +1 x14 >= 0 ;
+1 x280 -1 x18 -1 x14 >= -1 ;
-1 x215 +1 x14 >= 0 ;
-1 x215 +1 x19 >= 0 ;
+1 x215 -1 x14 -1 x19 >= -1 ;
-1 x202 +1 x13 >= 0 ;
-1 x202 +1 x20 >= 0 ;
+1 x202 -1 x13 -1 x20 >= -1 ;
-1 x189 +1 x12 >= 0 ;
-1 x189 +1 x21 >= 0 ;
+1 x189 -1 x12 -1 x21 >= -1 ;
-1 x176 +1 x11 >= 0 ;
-1 x176 +1 x22 >= 0 ;
+1 x176 -1 x11 -1 x22 >= -1 ;
-1 x163 +1 x10 >= 0 ;
-1 x163 +1 x23 >= 0 ;
+1 x163 -1 x10 -1 x23 >= -1 ;
-1 x150 +1 x9 >= 0 ;
-1 x150 +1 x24 >= 0 ;
+1 x150 -1 x9 -1 x24 >= -1 ;
-1 x137 +1 x8 >= 0 ;
-1 x137 +1 x25 >= 0 ;
+1 x137 -1 x8 -1 x25 >= -1 ;
-1 x124 +1 x7 >= 0 ;
-1 x124 +1 x26 >= 0 ;
+1 x124 -1 x7 -1 x26 >= -1 ;
-1 x111 +1 x6 >= 0 ;
-1 x111 +1 x27 >= 0 ;
+1 x111 -1 x6 -1 x27 >= -1 ;
-1 x98 +1 x5 >= 0 ;
-1 x98 +1 x28 >= 0 ;
+1 x98 -1 x5 -1 x28 >= -1 ;
-1 x411 +1 x28 >= 0 ;
-1 x411 +1 x5 >= 0 ;
+1 x411 -1 x28 -1 x5 >= -1 ;
-1 x398 +1 x27 >= 0 ;
-1 x398 +1 x6 >= 0 ;
+1 x398 -1 x27 -1 x6 >= -1 ;
-1 x385 +1 x26 >= 0 ;
-1 x385 +1 x7 >= 0 ;
+1 x385 -1 x26 -1 x7 >= -1 ;
-1 x372 +1 x25 >= 0 ;
-1 x372 +1 x8 >= 0 ;
+1 x372 -1 x25 -1 x8 >= -1 ;
-1 x359 +1 x24 >= 0 ;
-1 x359 +1 x9 >= 0 ;
+1 x359 -1 x24 -1 x9 >= -1 ;
-1 x346 +1 x23 >= 0 ;
-1 x346 +1 x10 >= 0 ;
+1 x346 -1 x23 -1 x10 >= -1 ;
-1 x333 +1 x22 >= 0 ;
-1 x333 +1 x11 >= 0 ;
+1 x333 -1 x22 -1 x11 >= -1 ;
-1 x320 +1 x21 >= 0 ;
-1 x320 +1 x12 >= 0 ;
+1 x320 -1 x21 -1 x12 >= -1 ;
-1 x307 +1 x20 >= 0 ;
-1 x307 +1 x13 >= 0 ;
+1 x307 -1 x20 -1 x13 >= -1 ;
-1 x294 +1 x19 >= 0 ;
-1 x294 +1 x14 >= 0 ;
+1 x294 -1 x19 -1 x14 >= -1 ;
-1 x216 +1 x14 >= 0 ;
-1 x216 +1 x20 >= 0 ;
+1 x216 -1 x14 -1 x20 >= -1 ;
-1 x203 +1 x13 >= 0 ;
-1 x203 +1 x21 >= 0 ;
+1 x203 -1 x13 -1 x21 >= -1 ;
-1 x190 +1 x12 >= 0 ;
-1 x190 +1 x22 >= 0 ;
+1 x190 -1 x12 -1 x22 >= -1 ;
-1 x177 +1 x11 >= 0 ;
-1 x177 +1 x23 >= 0 ;
+1 x177 -1 x11 -1 x23 >= -1 ;
-1 x164 +1 x10 >= 0 ;
-1 x164 +1 x24 >= 0 ;
+1 x164 -1 x10 -1 x24 >= -1 ;
-1 x151 +1 x9 >= 0 ;
-1 x151 +1 x25 >= 0 ;
+1 x151 -1 x9 -1 x25 >= -1 ;
-1 x138 +1 x8 >= 0 ;
-1 x138 +1 x26 >= 0 ;
+1 x138 -1 x8 -1 x26 >= -1 ;
-1 x125 +1 x7 >= 0 ;
-1 x125 +1 x27 >= 0 ;
+1 x125 -1 x7 -1 x27 >= -1 ;
-1 x112 +1 x6 >= 0 ;
-1 x112 +1 x28 >= 0 ;
+1 x112 -1 x6 -1 x28 >= -1 ;
-1 x412 +1 x28 >= 0 ;
-1 x412 +1 x6 >= 0 ;
+1 x412 -1 x28 -1 x6 >= -1 ;
-1 x399 +1 x27 >= 0 ;
-1 x399 +1 x7 >= 0 ;
+1 x399 -1 x27 -1 x7 >= -1 ;
-1 x386 +1 x26 >= 0 ;
-1 x386 +1 x8 >= 0 ;
+1 x386 -1 x26 -1 x8 >= -1 ;
-1 x373 +1 x25 >= 0 ;
-1 x373 +1 x9 >= 0 ;
+1 x373 -1 x25 -1 x9 >= -1 ;
-1 x360 +1 x24 >= 0 ;
-1 x360 +1 x10 >= 0 ;
+1 x360 -1 x24 -1 x10 >= -1 ;
-1 x347 +1 x23 >= 0 ;
-1 x347 +1 x11 >= 0 ;
+1 x347 -1 x23 -1 x11 >= -1 ;
-1 x334 +1 x22 >= 0 ;
-1 x334 +1 x12 >= 0 ;
+1 x334 -1 x22 -1 x12 >= -1 ;
-1 x321 +1 x21 >= 0 ;
-1 x321 +1 x13 >= 0 ;
+1 x321 -1 x21 -1 x13 >= -1 ;
-1 x308 +1 x20 >= 0 ;
-1 x308 +1 x14 >= 0 ;
+1 x308 -1 x20 -1 x14 >= -1 ;
-1 x217 +1 x14 >= 0 ;
-1 x217 +1 x21 >= 0 ;
+1 x217 -1 x14 -1 x21 >= -1 ;
-1 x204 +1 x13 >= 0 ;
-1 x204 +1 x22 >= 0 ;
+1 x204 -1 x13 -1 x22 >= -1 ;
-1 x191 +1 x12 >= 0 ;
-1 x191 +1 x23 >= 0 ;
+1 x191 -1 x12 -1 x23 >= -1 ;
-1 x178 +1 x11 >= 0 ;
-1 x178 +1 x24 >= 0 ;
+1 x178 -1 x11 -1 x24 >= -1 ;
-1 x165 +1 x10 >= 0 ;
-1 x165 +1 x25 >= 0 ;
+1 x165 -1 x10 -1 x25 >= -1 ;
-1 x152 +1 x9 >= 0 ;
-1 x152 +1 x26 >= 0 ;
+1 x152 -1 x9 -1 x26 >= -1 ;
-1 x139 +1 x8 >= 0 ;
-1 x139 +1 x27 >= 0 ;
+1 x139 -1 x8 -1 x27 >= -1 ;
-1 x126 +1 x7 >= 0 ;
-1 x126 +1 x28 >= 0 ;
+1 x126 -1 x7 -1 x28 >= -1 ;
-1 x413 +1 x28 >= 0 ;
-1 x413 +1 x7 >= 0 ;
+1 x413 -1 x28 -1 x7 >= -1 ;
-1 x400 +1 x27 >= 0 ;
-1 x400 +1 x8 >= 0 ;
+1 x400 -1 x27 -1 x8 >= -1 ;
-1 x387 +1 x26 >= 0 ;
-1 x387 +1 x9 >= 0 ;
+1 x387 -1 x26 -1 x9 >= -1 ;
-1 x374 +1 x25 >= 0 ;
-1 x374 +1 x10 >= 0 ;
+1 x374 -1 x25 -1 x10 >= -1 ;
-1 x361 +1 x24 >= 0 ;
-1 x361 +1 x11 >= 0 ;
+1 x361 -1 x24 -1 x11 >= -1 ;
-1 x348 +1 x23 >= 0 ;
-1 x348 +1 x12 >= 0 ;
+1 x348 -1 x23 -1 x12 >= -1 ;
-1 x335 +1 x22 >= 0 ;
-1 x335 +1 x13 >= 0 ;
+1 x335 -1 x22 -1 x13 >= -1 ;
-1 x322 +1 x21 >= 0 ;
-1 x322 +1 x14 >= 0 ;
+1 x322 -1 x21 -1 x14 >= -1 ;
-1 x218 +1 x14 >= 0 ;
-1 x218 +1 x22 >= 0 ;
+1 x218 -1 x14 -1 x22 >= -1 ;
-1 x205 +1 x13 >= 0 ;
-1 x205 +1 x23 >= 0 ;
+1 x205 -1 x13 -1 x23 >= -1 ;
-1 x192 +1 x12 >= 0 ;
-1 x192 +1 x24 >= 0 ;
+1 x192 -1 x12 -1 x24 >= -1 ;
-1 x179 +1 x11 >= 0 ;
-1 x179 +1 x25 >= 0 ;
+1 x179 -1 x11 -1 x25 >= -1 ;
-1 x166 +1 x10 >= 0 ;
-1 x166 +1 x26 >= 0 ;
+1 x166 -1 x10 -1 x26 >= -1 ;
-1 x153 +1 x9 >= 0 ;
-1 x153 +1 x27 >= 0 ;
+1 x153 -1 x9 -1 x27 >= -1 ;
-1 x140 +1 x8 >= 0 ;
-1 x140 +1 x28 >= 0 ;
+1 x140 -1 x8 -1 x28 >= -1 ;
-1 x414 +1 x28 >= 0 ;
-1 x414 +1 x8 >= 0 ;
+1 x414 -1 x28 -1 x8 >= -1 ;
-1 x401 +1 x27 >= 0 ;
-1 x401 +1 x9 >= 0 ;
+1 x401 -1 x27 -1 x9 >= -1 ;
-1 x388 +1 x26 >= 0 ;
-1 x388 +1 x10 >= 0 ;
+1 x388 -1 x26 -1 x10 >= -1 ;
-1 x375 +1 x25 >= 0 ;
-1 x375 +1 x11 >= 0 ;
+1 x375 -1 x25 -1 x11 >= -1 ;
-1 x362 +1 x24 >= 0 ;
-1 x362 +1 x12 >= 0 ;
+1 x362 -1 x24 -1 x12 >= -1 ;
-1 x349 +1 x23 >= 0 ;
-1 x349 +1 x13 >= 0 ;
+1 x349 -1 x23 -1 x13 >= -1 ;
-1 x336 +1 x22 >= 0 ;
-1 x336 +1 x14 >= 0 ;
+1 x336 -1 x22 -1 x14 >= -1 ;
-1 x219 +1 x14 >= 0 ;
-1 x219 +1 x23 >= 0 ;
+1 x219 -1 x14 -1 x23 >= -1 ;
-1 x206 +1 x13 >= 0 ;
-1 x206 +1 x24 >= 0 ;
+1 x206 -1 x13 -1 x24 >= -1 ;
-1 x193 +1 x12 >= 0 ;
-1 x193 +1 x25 >= 0 ;
+1 x193 -1 x12 -1 x25 >= -1 ;
-1 x180 +1 x11 >= 0 ;
-1 x180 +1 x26 >= 0 ;
+1 x180 -1 x11 -1 x26 >= -1 ;
-1 x167 +1 x10 >= 0 ;
-1 x167 +1 x27 >= 0 ;
+1 x167 -1 x10 -1 x27 >= -1 ;
-1 x154 +1 x9 >= 0 ;
-1 x154 +1 x28 >= 0 ;
+1 x154 -1 x9 -1 x28 >= -1 ;
-1 x415 +1 x28 >= 0 ;
-1 x415 +1 x9 >= 0 ;
+1 x415 -1 x28 -1 x9 >= -1 ;
-1 x402 +1 x27 >= 0 ;
-1 x402 +1 x10 >= 0 ;
+1 x402 -1 x27 -1 x10 >= -1 ;
-1 x389 +1 x26 >= 0 ;
-1 x389 +1 x11 >= 0 ;
+1 x389 -1 x26 -1 x11 >= -1 ;
-1 x376 +1 x25 >= 0 ;
-1 x376 +1 x12 >= 0 ;
+1 x376 -1 x25 -1 x12 >= -1 ;
-1 x363 +1 x24 >= 0 ;
-1 x363 +1 x13 >= 0 ;
+1 x363 -1 x24 -1 x13 >= -1 ;
-1 x350 +1 x23 >= 0 ;
-1 x350 +1 x14 >= 0 ;
+1 x350 -1 x23 -1 x14 >= -1 ;
-1 x220 +1 x14 >= 0 ;
-1 x220 +1 x24 >= 0 ;
+1 x220 -1 x14 -1 x24 >= -1 ;
-1 x207 +1 x13 >= 0 ;
-1 x207 +1 x25 >= 0 ;
+1 x207 -1 x13 -1 x25 >= -1 ;
-1 x194 +1 x12 >= 0 ;
-1 x194 +1 x26 >= 0 ;
+1 x194 -1 x12 -1 x26 >= -1 ;
-1 x181 +1 x11 >= 0 ;
-1 x181 +1 x27 >= 0 ;
+1 x181 -1 x11 -1 x27 >= -1 ;
-1 x168 +1 x10 >= 0 ;
-1 x168 +1 x28 >= 0 ;
+1 x168 -1 x10 -1 x28 >= -1 ;
-1 x416 +1 x28 >= 0 ;
-1 x416 +1 x10 >= 0 ;
+1 x416 -1 x28 -1 x10 >= -1 ;
-1 x403 +1 x27 >= 0 ;
-1 x403 +1 x11 >= 0 ;
+1 x403 -1 x27 -1 x11 >= -1 ;
-1 x390 +1 x26 >= 0 ;
-1 x390 +1 x12 >= 0 ;
+1 x390 -1 x26 -1 x12 >= -1 ;
-1 x377 +1 x25 >= 0 ;
-1 x377 +1 x13 >= 0 ;
+1 x377 -1 x25 -1 x13 >= -1 ;
-1 x364 +1 x24 >= 0 ;
-1 x364 +1 x14 >= 0 ;
+1 x364 -1 x24 -1 x14 >= -1 ;
-1 x221 +1 x14 >= 0 ;
-1 x221 +1 x25 >= 0 ;
+1 x221 -1 x14 -1 x25 >= -1 ;
-1 x208 +1 x13 >= 0 ;
-1 x208 +1 x26 >= 0 ;
+1 x208 -1 x13 -1 x26 >= -1 ;
-1 x195 +1 x12 >= 0 ;
-1 x195 +1 x27 >= 0 ;
+1 x195 -1 x12 -1 x27 >= -1 ;
-1 x182 +1 x11 >= 0 ;
-1 x182 +1 x28 >= 0 ;
+1 x182 -1 x11 -1 x28 >= -1 ;
-1 x417 +1 x28 >= 0 ;
-1 x417 +1 x11 >= 0 ;
+1 x417 -1 x28 -1 x11 >= -1 ;
-1 x404 +1 x27 >= 0 ;
-1 x404 +1 x12 >= 0 ;
+1 x404 -1 x27 -1 x12 >= -1 ;
-1 x391 +1 x26 >= 0 ;
-1 x391 +1 x13 >= 0 ;
+1 x391 -1 x26 -1 x13 >= -1 ;
-1 x378 +1 x25 >= 0 ;
-1 x378 +1 x14 >= 0 ;
+1 x378 -1 x25 -1 x14 >= -1 ;
-1 x222 +1 x14 >= 0 ;
-1 x222 +1 x26 >= 0 ;
+1 x222 -1 x14 -1 x26 >= -1 ;
-1 x209 +1 x13 >= 0 ;
-1 x209 +1 x27 >= 0 ;
+1 x209 -1 x13 -1 x27 >= -1 ;
-1 x196 +1 x12 >= 0 ;
-1 x196 +1 x28 >= 0 ;
+1 x196 -1 x12 -1 x28 >= -1 ;
-1 x418 +1 x28 >= 0 ;
-1 x418 +1 x12 >= 0 ;
+1 x418 -1 x28 -1 x12 >= -1 ;
-1 x405 +1 x27 >= 0 ;
-1 x405 +1 x13 >= 0 ;
+1 x405 -1 x27 -1 x13 >= -1 ;
-1 x392 +1 x26 >= 0 ;
-1 x392 +1 x14 >= 0 ;
+1 x392 -1 x26 -1 x14 >= -1 ;
-1 x223 +1 x14 >= 0 ;
-1 x223 +1 x27 >= 0 ;
+1 x223 -1 x14 -1 x27 >= -1 ;
-1 x210 +1 x13 >= 0 ;
-1 x210 +1 x28 >= 0 ;
+1 x210 -1 x13 -1 x28 >= -1 ;
-1 x419 +1 x28 >= 0 ;
-1 x419 +1 x13 >= 0 ;
+1 x419 -1 x28 -1 x13 >= -1 ;
-1 x406 +1 x27 >= 0 ;
-1 x406 +1 x14 >= 0 ;
+1 x406 -1 x27 -1 x14 >= -1 ;
-1 x224 +1 x14 >= 0 ;
-1 x224 +1 x28 >= 0 ;
+1 x224 -1 x14 -1 x28 >= -1 ;
-1 x420 +1 x28 >= 0 ;
-1 x420 +1 x14 >= 0 ;
+1 x420 -1 x28 -1 x14 >= -1 ;
